# 34751
param k := 6;
param n := 60;
param s := 1;
set E :=  (0,18) (0,37) (1,5) (1,43) (2,18) (2,45) (2,52) (3,33) (3,57) (4,36) (4,44) (4,54) (5,37) (6,41) (7,12) (8,20) (8,47) (9,10) (9,13) (10,20) (10,38) (11,49) (12,19) (13,42) (14,25) (14,35) (14,39) (15,43) (16,26) (16,28) (17,42) (17,59) (18,49) (19,53) (20,37) (21,35) (21,43) (22,46) (23,40) (24,44) (24,45) (26,29) (26,48) (27,35) (29,45) (30,48) (31,36) (32,51) (33,49) (34,45) (35,50) (36,51) (40,54) (41,53) (41,54) (43,56) (44,46) (48,55) (52,58);